c Reduced graph for p31_3 generated by Cyril Grelier
p edge 24 78
e 1 3
e 1 4
e 1 6
e 1 12
e 1 14
e 1 16
e 1 20
e 1 22
e 2 10
e 2 14
e 2 24
e 3 7
e 4 6
e 4 9
e 4 12
e 4 14
e 4 16
e 4 20
e 4 22
e 5 21
e 6 7
e 6 12
e 6 13
e 6 14
e 6 16
e 6 17
e 6 18
e 6 20
e 6 21
e 6 22
e 6 23
e 7 13
e 7 17
e 7 18
e 7 21
e 7 23
e 8 9
e 8 15
e 8 19
e 8 20
e 8 23
e 8 24
e 9 15
e 9 19
e 9 23
e 9 24
e 10 14
e 10 24
e 11 16
e 11 19
e 12 14
e 12 16
e 12 20
e 12 22
e 13 17
e 13 18
e 13 21
e 13 23
e 14 16
e 14 20
e 14 22
e 14 24
e 15 19
e 15 23
e 15 24
e 16 19
e 16 20
e 16 22
e 17 18
e 17 21
e 17 23
e 18 21
e 18 23
e 19 23
e 19 24
e 20 22
e 21 23
e 23 24
